p cnf 962 2470
51 -2 -696 0
-51 2 0
-51 696 0
52 -51 -3 0
-52 51 0
-52 3 0
53 -697 -698 0
-53 697 0
-53 698 0
54 -53 -699 0
-54 53 0
-54 699 0
55 -700 -701 0
-55 700 0
-55 701 0
56 -8 -702 0
-56 8 0
-56 702 0
57 -56 -703 0
-57 56 0
-57 703 0
58 -704 -55 0
-58 704 0
-58 55 0
59 -705 -10 0
-59 705 0
-59 10 0
60 -59 -706 0
-60 59 0
-60 706 0
61 -707 -58 0
-61 707 0
-61 58 0
62 -13 -699 0
-62 13 0
-62 699 0
63 -62 -708 0
-63 62 0
-63 708 0
64 -709 -61 0
-64 709 0
-64 61 0
65 -15 -11 0
-65 15 0
-65 11 0
66 -65 -16 0
-66 65 0
-66 16 0
67 -710 -64 0
-67 710 0
-67 64 0
68 -18 -17 0
-68 18 0
-68 17 0
69 -68 -13 0
-69 68 0
-69 13 0
70 -711 -67 0
-70 711 0
-70 67 0
71 -712 -713 0
-71 712 0
-71 713 0
72 -71 -21 0
-72 71 0
-72 21 0
73 -714 -70 0
-73 714 0
-73 70 0
74 -23 -715 0
-74 23 0
-74 715 0
75 -74 -16 0
-75 74 0
-75 16 0
76 -716 -73 0
-76 716 0
-76 73 0
77 -24 -713 0
-77 24 0
-77 713 0
78 -77 -703 0
-78 77 0
-78 703 0
79 -717 -76 0
-79 717 0
-79 76 0
80 -22 -713 0
-80 22 0
-80 713 0
81 -80 -13 0
-81 80 0
-81 13 0
82 -718 -79 0
-82 718 0
-82 79 0
83 -26 -25 0
-83 26 0
-83 25 0
84 -83 -719 0
-84 83 0
-84 719 0
85 -720 -82 0
-85 720 0
-85 82 0
86 -721 -722 0
-86 721 0
-86 722 0
87 -86 -15 0
-87 86 0
-87 15 0
88 -723 -85 0
-88 723 0
-88 85 0
89 -712 -15 0
-89 712 0
-89 15 0
90 -89 -724 0
-90 89 0
-90 724 0
91 -725 -88 0
-91 725 0
-91 88 0
92 -726 -28 0
-92 726 0
-92 28 0
93 -92 -727 0
-93 92 0
-93 727 0
94 -728 -91 0
-94 728 0
-94 91 0
95 -8 -729 0
-95 8 0
-95 729 0
96 -95 -30 0
-96 95 0
-96 30 0
97 -730 -94 0
-97 730 0
-97 94 0
98 -731 -24 0
-98 731 0
-98 24 0
99 -98 -729 0
-99 98 0
-99 729 0
100 -732 -97 0
-100 732 0
-100 97 0
101 -731 -713 0
-101 731 0
-101 713 0
102 -101 -699 0
-102 101 0
-102 699 0
103 -733 -100 0
-103 733 0
-103 100 0
104 -705 -6 0
-104 705 0
-104 6 0
105 -104 -734 0
-105 104 0
-105 734 0
106 -735 -103 0
-106 735 0
-106 103 0
107 -736 -2 0
-107 736 0
-107 2 0
108 -107 -737 0
-108 107 0
-108 737 0
109 -738 -106 0
-109 738 0
-109 106 0
110 -726 -739 0
-110 726 0
-110 739 0
111 -110 -708 0
-111 110 0
-111 708 0
112 -740 -109 0
-112 740 0
-112 109 0
113 -35 -7 0
-113 35 0
-113 7 0
114 -113 -741 0
-114 113 0
-114 741 0
115 -742 -112 0
-115 742 0
-115 112 0
116 -726 -25 0
-116 726 0
-116 25 0
117 -116 -727 0
-117 116 0
-117 727 0
118 -743 -115 0
-118 743 0
-118 115 0
119 -38 -744 0
-119 38 0
-119 744 0
120 -119 -708 0
-120 119 0
-120 708 0
121 -745 -118 0
-121 745 0
-121 118 0
122 -27 -15 0
-122 27 0
-122 15 0
123 -122 -741 0
-123 122 0
-123 741 0
124 -746 -121 0
-124 746 0
-124 121 0
125 -715 -697 0
-125 715 0
-125 697 0
126 -125 -39 0
-126 125 0
-126 39 0
127 -747 -124 0
-127 747 0
-127 124 0
128 -25 -17 0
-128 25 0
-128 17 0
129 -128 -705 0
-129 128 0
-129 705 0
130 -748 -127 0
-130 748 0
-130 127 0
131 -27 -11 0
-131 27 0
-131 11 0
132 -131 -9 0
-132 131 0
-132 9 0
133 -749 -130 0
-133 749 0
-133 130 0
134 -18 -729 0
-134 18 0
-134 729 0
135 -134 -750 0
-135 134 0
-135 750 0
136 -751 -133 0
-136 751 0
-136 133 0
137 -29 -699 0
-137 29 0
-137 699 0
138 -137 -737 0
-138 137 0
-138 737 0
139 -752 -136 0
-139 752 0
-139 136 0
140 -753 -41 0
-140 753 0
-140 41 0
141 -140 -34 0
-141 140 0
-141 34 0
142 -754 -139 0
-142 754 0
-142 139 0
143 -43 -42 0
-143 43 0
-143 42 0
144 -143 -3 0
-144 143 0
-144 3 0
145 -755 -142 0
-145 755 0
-145 142 0
146 -39 -18 0
-146 39 0
-146 18 0
147 -146 -23 0
-147 146 0
-147 23 0
148 -756 -145 0
-148 756 0
-148 145 0
149 -26 -17 0
-149 26 0
-149 17 0
150 -149 -757 0
-150 149 0
-150 757 0
151 -758 -148 0
-151 758 0
-151 148 0
152 -736 -15 0
-152 736 0
-152 15 0
153 -152 -26 0
-153 152 0
-153 26 0
154 -759 -151 0
-154 759 0
-154 151 0
155 -45 -698 0
-155 45 0
-155 698 0
156 -155 -726 0
-156 155 0
-156 726 0
157 -760 -154 0
-157 760 0
-157 154 0
158 -712 -17 0
-158 712 0
-158 17 0
159 -158 -761 0
-159 158 0
-159 761 0
160 -762 -157 0
-160 762 0
-160 157 0
161 -22 -18 0
-161 22 0
-161 18 0
162 -161 -708 0
-162 161 0
-162 708 0
163 -763 -160 0
-163 763 0
-163 160 0
164 -764 -4 0
-164 764 0
-164 4 0
165 -164 -41 0
-165 164 0
-165 41 0
166 -765 -163 0
-166 765 0
-166 163 0
167 -43 -766 0
-167 43 0
-167 766 0
168 -167 -767 0
-168 167 0
-168 767 0
169 -768 -166 0
-169 768 0
-169 166 0
170 -731 -769 0
-170 731 0
-170 769 0
171 -170 -724 0
-171 170 0
-171 724 0
172 -770 -169 0
-172 770 0
-172 169 0
173 -724 -10 0
-173 724 0
-173 10 0
174 -173 -7 0
-174 173 0
-174 7 0
175 -771 -172 0
-175 771 0
-175 172 0
176 -22 -11 0
-176 22 0
-176 11 0
177 -176 -3 0
-177 176 0
-177 3 0
178 -772 -175 0
-178 772 0
-178 175 0
179 -46 -41 0
-179 46 0
-179 41 0
180 -179 -9 0
-180 179 0
-180 9 0
181 -773 -178 0
-181 773 0
-181 178 0
182 -721 -15 0
-182 721 0
-182 15 0
183 -182 -729 0
-183 182 0
-183 729 0
184 -774 -181 0
-184 774 0
-184 181 0
185 -34 -24 0
-185 34 0
-185 24 0
186 -185 -39 0
-186 185 0
-186 39 0
187 -775 -184 0
-187 775 0
-187 184 0
188 -31 -776 0
-188 31 0
-188 776 0
189 -188 -36 0
-189 188 0
-189 36 0
190 -777 -187 0
-190 777 0
-190 187 0
191 -37 -11 0
-191 37 0
-191 11 0
192 -191 -39 0
-192 191 0
-192 39 0
193 -778 -190 0
-193 778 0
-193 190 0
194 -737 -769 0
-194 737 0
-194 769 0
195 -194 -727 0
-195 194 0
-195 727 0
196 -779 -193 0
-196 779 0
-196 193 0
197 -731 -12 0
-197 731 0
-197 12 0
198 -197 -703 0
-198 197 0
-198 703 0
199 -780 -196 0
-199 780 0
-199 196 0
200 -767 -17 0
-200 767 0
-200 17 0
201 -200 -9 0
-201 200 0
-201 9 0
202 -781 -199 0
-202 781 0
-202 199 0
203 -42 -33 0
-203 42 0
-203 33 0
204 -203 -32 0
-204 203 0
-204 32 0
205 -782 -202 0
-205 782 0
-205 202 0
206 -17 -705 0
-206 17 0
-206 705 0
207 -206 -46 0
-207 206 0
-207 46 0
208 -783 -205 0
-208 783 0
-208 205 0
209 -721 -4 0
-209 721 0
-209 4 0
210 -209 -26 0
-210 209 0
-210 26 0
211 -784 -208 0
-211 784 0
-211 208 0
212 -757 -26 0
-212 757 0
-212 26 0
213 -212 -785 0
-213 212 0
-213 785 0
214 -786 -211 0
-214 786 0
-214 211 0
215 -41 -8 0
-215 41 0
-215 8 0
216 -215 -23 0
-216 215 0
-216 23 0
217 -787 -214 0
-217 787 0
-217 214 0
218 -48 -8 0
-218 48 0
-218 8 0
219 -218 -23 0
-219 218 0
-219 23 0
220 -788 -217 0
-220 788 0
-220 217 0
221 -715 -13 0
-221 715 0
-221 13 0
222 -221 -750 0
-222 221 0
-222 750 0
223 -789 -220 0
-223 789 0
-223 220 0
224 -34 -8 0
-224 34 0
-224 8 0
225 -224 -16 0
-225 224 0
-225 16 0
226 -790 -223 0
-226 790 0
-226 223 0
227 -31 -20 0
-227 31 0
-227 20 0
228 -227 -6 0
-228 227 0
-228 6 0
229 -791 -226 0
-229 791 0
-229 226 0
230 -753 -10 0
-230 753 0
-230 10 0
231 -230 -792 0
-231 230 0
-231 792 0
232 -793 -229 0
-232 793 0
-232 229 0
233 -40 -33 0
-233 40 0
-233 33 0
234 -233 -50 0
-234 233 0
-234 50 0
235 -794 -232 0
-235 794 0
-235 232 0
236 -713 -795 0
-236 713 0
-236 795 0
237 -236 -15 0
-237 236 0
-237 15 0
238 -796 -235 0
-238 796 0
-238 235 0
239 -761 -757 0
-239 761 0
-239 757 0
240 -239 -50 0
-240 239 0
-240 50 0
241 -797 -238 0
-241 797 0
-241 238 0
242 -41 -798 0
-242 41 0
-242 798 0
243 -242 -799 0
-243 242 0
-243 799 0
244 -800 -241 0
-244 800 0
-244 241 0
245 -35 -6 0
-245 35 0
-245 6 0
246 -245 -30 0
-246 245 0
-246 30 0
247 -801 -244 0
-247 801 0
-247 244 0
248 -761 -702 0
-248 761 0
-248 702 0
249 -248 -16 0
-249 248 0
-249 16 0
250 -802 -247 0
-250 802 0
-250 247 0
251 -25 -803 0
-251 25 0
-251 803 0
252 -251 -785 0
-252 251 0
-252 785 0
253 -804 -250 0
-253 804 0
-253 250 0
254 -805 -737 0
-254 805 0
-254 737 0
255 -254 -726 0
-255 254 0
-255 726 0
256 -806 -253 0
-256 806 0
-256 253 0
257 -807 -699 0
-257 807 0
-257 699 0
258 -257 -767 0
-258 257 0
-258 767 0
259 -808 -256 0
-259 808 0
-259 256 0
260 -798 -21 0
-260 798 0
-260 21 0
261 -260 -9 0
-261 260 0
-261 9 0
262 -809 -259 0
-262 809 0
-262 259 0
263 -49 -25 0
-263 49 0
-263 25 0
264 -263 -32 0
-264 263 0
-264 32 0
265 -810 -262 0
-265 810 0
-265 262 0
266 -47 -757 0
-266 47 0
-266 757 0
267 -266 -8 0
-267 266 0
-267 8 0
268 -811 -265 0
-268 811 0
-268 265 0
269 -739 -5 0
-269 739 0
-269 5 0
270 -269 -708 0
-270 269 0
-270 708 0
271 -812 -268 0
-271 812 0
-271 268 0
272 -713 -769 0
-272 713 0
-272 769 0
273 -272 -15 0
-273 272 0
-273 15 0
274 -813 -271 0
-274 813 0
-274 271 0
275 -776 -4 0
-275 776 0
-275 4 0
276 -275 -29 0
-276 275 0
-276 29 0
277 -814 -274 0
-277 814 0
-277 274 0
278 -815 -699 0
-278 815 0
-278 699 0
279 -278 -761 0
-279 278 0
-279 761 0
280 -816 -277 0
-280 816 0
-280 277 0
281 -45 -817 0
-281 45 0
-281 817 0
282 -281 -50 0
-282 281 0
-282 50 0
283 -818 -280 0
-283 818 0
-283 280 0
284 -819 -6 0
-284 819 0
-284 6 0
285 -284 -708 0
-285 284 0
-285 708 0
286 -820 -283 0
-286 820 0
-286 283 0
287 -30 -8 0
-287 30 0
-287 8 0
288 -287 -703 0
-288 287 0
-288 703 0
289 -821 -286 0
-289 821 0
-289 286 0
290 -15 -795 0
-290 15 0
-290 795 0
291 -290 -9 0
-291 290 0
-291 9 0
292 -822 -289 0
-292 822 0
-292 289 0
293 -50 -767 0
-293 50 0
-293 767 0
294 -293 -708 0
-294 293 0
-294 708 0
295 -823 -292 0
-295 823 0
-295 292 0
296 -40 -38 0
-296 40 0
-296 38 0
297 -296 -734 0
-297 296 0
-297 734 0
298 -824 -295 0
-298 824 0
-298 295 0
299 -766 -696 0
-299 766 0
-299 696 0
300 -299 -39 0
-300 299 0
-300 39 0
301 -825 -298 0
-301 825 0
-301 298 0
302 -47 -736 0
-302 47 0
-302 736 0
303 -302 -750 0
-303 302 0
-303 750 0
304 -826 -301 0
-304 826 0
-304 301 0
305 -28 -766 0
-305 28 0
-305 766 0
306 -305 -36 0
-306 305 0
-306 36 0
307 -827 -304 0
-307 827 0
-307 304 0
308 -731 -19 0
-308 731 0
-308 19 0
309 -308 -8 0
-309 308 0
-309 8 0
310 -828 -307 0
-310 828 0
-310 307 0
311 -792 -23 0
-311 792 0
-311 23 0
312 -311 -9 0
-312 311 0
-312 9 0
313 -829 -310 0
-313 829 0
-313 310 0
314 -46 -5 0
-314 46 0
-314 5 0
315 -314 -734 0
-315 314 0
-315 734 0
316 -830 -313 0
-316 830 0
-316 313 0
317 -34 -739 0
-317 34 0
-317 739 0
318 -317 -12 0
-318 317 0
-318 12 0
319 -831 -316 0
-319 831 0
-319 316 0
320 -722 -10 0
-320 722 0
-320 10 0
321 -320 -12 0
-321 320 0
-321 12 0
322 -832 -319 0
-322 832 0
-322 319 0
323 -39 -1 0
-323 39 0
-323 1 0
324 -323 -35 0
-324 323 0
-324 35 0
325 -833 -322 0
-325 833 0
-325 322 0
326 -44 -724 0
-326 44 0
-326 724 0
327 -326 -750 0
-327 326 0
-327 750 0
328 -834 -325 0
-328 834 0
-328 325 0
329 -45 -28 0
-329 45 0
-329 28 0
330 -329 -706 0
-330 329 0
-330 706 0
331 -835 -328 0
-331 835 0
-331 328 0
332 -699 -3 0
-332 699 0
-332 3 0
333 -332 -708 0
-333 332 0
-333 708 0
334 -836 -331 0
-334 836 0
-334 331 0
335 -47 -767 0
-335 47 0
-335 767 0
336 -335 -703 0
-336 335 0
-336 703 0
337 -837 -334 0
-337 837 0
-337 334 0
338 -329 -14 0
-338 329 0
-338 14 0
339 -838 -337 0
-339 838 0
-339 337 0
340 -792 -28 0
-340 792 0
-340 28 0
341 -340 -7 0
-341 340 0
-341 7 0
342 -839 -339 0
-342 839 0
-342 339 0
343 -28 -739 0
-343 28 0
-343 739 0
344 -343 -36 0
-344 343 0
-344 36 0
345 -840 -342 0
-345 840 0
-345 342 0
346 -841 -39 0
-346 841 0
-346 39 0
347 -346 -32 0
-347 346 0
-347 32 0
348 -842 -345 0
-348 842 0
-348 345 0
349 -737 -31 0
-349 737 0
-349 31 0
350 -349 -35 0
-350 349 0
-350 35 0
351 -843 -348 0
-351 843 0
-351 348 0
352 -46 -844 0
-352 46 0
-352 844 0
353 -352 -21 0
-353 352 0
-353 21 0
354 -845 -351 0
-354 845 0
-354 351 0
355 -799 -699 0
-355 799 0
-355 699 0
356 -355 -750 0
-356 355 0
-356 750 0
357 -846 -354 0
-357 846 0
-357 354 0
358 -29 -722 0
-358 29 0
-358 722 0
359 -358 -815 0
-359 358 0
-359 815 0
360 -847 -357 0
-360 847 0
-360 357 0
361 -37 -17 0
-361 37 0
-361 17 0
362 -361 -31 0
-362 361 0
-362 31 0
363 -848 -360 0
-363 848 0
-363 360 0
364 -44 -795 0
-364 44 0
-364 795 0
365 -364 -705 0
-365 364 0
-365 705 0
366 -849 -363 0
-366 849 0
-366 363 0
367 -227 -705 0
-367 227 0
-367 705 0
368 -850 -366 0
-368 850 0
-368 366 0
369 -43 -6 0
-369 43 0
-369 6 0
370 -369 -750 0
-370 369 0
-370 750 0
371 -851 -368 0
-371 851 0
-371 368 0
372 -44 -26 0
-372 44 0
-372 26 0
373 -372 -708 0
-373 372 0
-373 708 0
374 -852 -371 0
-374 852 0
-374 371 0
375 -44 -1 0
-375 44 0
-375 1 0
376 -375 -12 0
-376 375 0
-376 12 0
377 -853 -374 0
-377 853 0
-377 374 0
378 -17 -702 0
-378 17 0
-378 702 0
379 -378 -706 0
-379 378 0
-379 706 0
380 -854 -377 0
-380 854 0
-380 377 0
381 -5 -1 0
-381 5 0
-381 1 0
382 -381 -7 0
-382 381 0
-382 7 0
383 -855 -380 0
-383 855 0
-383 380 0
384 -729 -696 0
-384 729 0
-384 696 0
385 -384 -807 0
-385 384 0
-385 807 0
386 -856 -383 0
-386 856 0
-386 383 0
387 -47 -5 0
-387 47 0
-387 5 0
388 -387 -46 0
-388 387 0
-388 46 0
389 -857 -386 0
-389 857 0
-389 386 0
390 -33 -4 0
-390 33 0
-390 4 0
391 -390 -28 0
-391 390 0
-391 28 0
392 -858 -389 0
-392 858 0
-392 389 0
393 -815 -24 0
-393 815 0
-393 24 0
394 -393 -798 0
-394 393 0
-394 798 0
395 -859 -392 0
-395 859 0
-395 392 0
396 -47 -32 0
-396 47 0
-396 32 0
397 -396 -9 0
-397 396 0
-397 9 0
398 -860 -395 0
-398 860 0
-398 395 0
399 -38 -13 0
-399 38 0
-399 13 0
400 -399 -35 0
-400 399 0
-400 35 0
401 -861 -398 0
-401 861 0
-401 398 0
402 -744 -33 0
-402 744 0
-402 33 0
403 -402 -705 0
-403 402 0
-403 705 0
404 -862 -401 0
-404 862 0
-404 401 0
405 -33 -10 0
-405 33 0
-405 10 0
406 -405 -766 0
-406 405 0
-406 766 0
407 -863 -404 0
-407 863 0
-407 404 0
408 -805 -5 0
-408 805 0
-408 5 0
409 -408 -696 0
-409 408 0
-409 696 0
410 -864 -407 0
-410 864 0
-410 407 0
411 -739 -697 0
-411 739 0
-411 697 0
412 -411 -21 0
-412 411 0
-412 21 0
413 -865 -410 0
-413 865 0
-413 410 0
414 -17 -697 0
-414 17 0
-414 697 0
415 -414 -724 0
-415 414 0
-415 724 0
416 -866 -413 0
-416 866 0
-416 413 0
417 -721 -5 0
-417 721 0
-417 5 0
418 -417 -803 0
-418 417 0
-418 803 0
419 -867 -416 0
-419 867 0
-419 416 0
420 -715 -5 0
-420 715 0
-420 5 0
421 -420 -734 0
-421 420 0
-421 734 0
422 -868 -419 0
-422 868 0
-422 419 0
423 -764 -696 0
-423 764 0
-423 696 0
424 -423 -11 0
-424 423 0
-424 11 0
425 -869 -422 0
-425 869 0
-425 422 0
426 -764 -28 0
-426 764 0
-426 28 0
427 -426 -799 0
-427 426 0
-427 799 0
428 -870 -425 0
-428 870 0
-428 425 0
429 -25 -19 0
-429 25 0
-429 19 0
430 -429 -34 0
-430 429 0
-430 34 0
431 -871 -428 0
-431 871 0
-431 428 0
432 -28 -698 0
-432 28 0
-432 698 0
433 -432 -44 0
-433 432 0
-433 44 0
434 -872 -431 0
-434 872 0
-434 431 0
435 -30 -6 0
-435 30 0
-435 6 0
436 -435 -708 0
-436 435 0
-436 708 0
437 -873 -434 0
-437 873 0
-437 434 0
438 -25 -1 0
-438 25 0
-438 1 0
439 -438 -734 0
-439 438 0
-439 734 0
440 -874 -437 0
-440 874 0
-440 437 0
441 -875 -5 0
-441 875 0
-441 5 0
442 -441 -803 0
-442 441 0
-442 803 0
443 -876 -440 0
-443 876 0
-443 440 0
444 -805 -698 0
-444 805 0
-444 698 0
445 -444 -12 0
-445 444 0
-445 12 0
446 -877 -443 0
-446 877 0
-446 443 0
447 -10 -4 0
-447 10 0
-447 4 0
448 -447 -21 0
-448 447 0
-448 21 0
449 -878 -446 0
-449 878 0
-449 446 0
450 -47 -744 0
-450 47 0
-450 744 0
451 -450 -724 0
-451 450 0
-451 724 0
452 -879 -449 0
-452 879 0
-452 449 0
453 -798 -11 0
-453 798 0
-453 11 0
454 -453 -761 0
-454 453 0
-454 761 0
455 -880 -452 0
-455 880 0
-455 452 0
456 -875 -702 0
-456 875 0
-456 702 0
457 -456 -719 0
-457 456 0
-457 719 0
458 -881 -455 0
-458 881 0
-458 455 0
459 -882 -13 0
-459 882 0
-459 13 0
460 -459 -750 0
-460 459 0
-460 750 0
461 -883 -458 0
-461 883 0
-461 458 0
462 -47 -22 0
-462 47 0
-462 22 0
463 -462 -32 0
-463 462 0
-463 32 0
464 -884 -461 0
-464 884 0
-464 461 0
465 -46 -34 0
-465 46 0
-465 34 0
466 -465 -21 0
-466 465 0
-466 21 0
467 -885 -464 0
-467 885 0
-467 464 0
468 -753 -31 0
-468 753 0
-468 31 0
469 -468 -26 0
-469 468 0
-469 26 0
470 -886 -467 0
-470 886 0
-470 467 0
471 -6 -5 0
-471 6 0
-471 5 0
472 -471 -1 0
-472 471 0
-472 1 0
473 -887 -470 0
-473 887 0
-473 470 0
474 -764 -702 0
-474 764 0
-474 702 0
475 -474 -14 0
-475 474 0
-475 14 0
476 -888 -473 0
-476 888 0
-476 473 0
477 -731 -795 0
-477 731 0
-477 795 0
478 -477 -819 0
-478 477 0
-478 819 0
479 -889 -476 0
-479 889 0
-479 476 0
480 -731 -7 0
-480 731 0
-480 7 0
481 -480 -32 0
-481 480 0
-481 32 0
482 -890 -479 0
-482 890 0
-482 479 0
483 -41 -819 0
-483 41 0
-483 819 0
484 -483 -21 0
-484 483 0
-484 21 0
485 -891 -482 0
-485 891 0
-485 482 0
486 -875 -697 0
-486 875 0
-486 697 0
487 -486 -757 0
-487 486 0
-487 757 0
488 -892 -485 0
-488 892 0
-488 485 0
489 -764 -12 0
-489 764 0
-489 12 0
490 -489 -50 0
-490 489 0
-490 50 0
491 -893 -488 0
-491 893 0
-491 488 0
492 -882 -5 0
-492 882 0
-492 5 0
493 -492 -724 0
-493 492 0
-493 724 0
494 -894 -491 0
-494 894 0
-494 491 0
495 -764 -769 0
-495 764 0
-495 769 0
496 -495 -761 0
-496 495 0
-496 761 0
497 -895 -494 0
-497 895 0
-497 494 0
498 -10 -8 0
-498 10 0
-498 8 0
499 -498 -708 0
-499 498 0
-499 708 0
500 -896 -497 0
-500 896 0
-500 497 0
501 -844 -882 0
-501 844 0
-501 882 0
502 -501 -50 0
-502 501 0
-502 50 0
503 -897 -500 0
-503 897 0
-503 500 0
504 -819 -719 0
-504 819 0
-504 719 0
505 -504 -9 0
-505 504 0
-505 9 0
506 -898 -503 0
-506 898 0
-506 503 0
507 -764 -739 0
-507 764 0
-507 739 0
508 -507 -815 0
-508 507 0
-508 815 0
509 -899 -506 0
-509 899 0
-509 506 0
510 -49 -753 0
-510 49 0
-510 753 0
511 -510 -705 0
-511 510 0
-511 705 0
512 -900 -509 0
-512 900 0
-512 509 0
513 -38 -19 0
-513 38 0
-513 19 0
514 -513 -40 0
-514 513 0
-514 40 0
515 -901 -512 0
-515 901 0
-515 512 0
516 -713 -697 0
-516 713 0
-516 697 0
517 -516 -734 0
-517 516 0
-517 734 0
518 -902 -515 0
-518 902 0
-518 515 0
519 -736 -17 0
-519 736 0
-519 17 0
520 -519 -25 0
-520 519 0
-520 25 0
521 -903 -518 0
-521 903 0
-521 518 0
522 -764 -39 0
-522 764 0
-522 39 0
523 -522 -708 0
-523 522 0
-523 708 0
524 -904 -521 0
-524 904 0
-524 521 0
525 -875 -15 0
-525 875 0
-525 15 0
526 -525 -798 0
-526 525 0
-526 798 0
527 -905 -524 0
-527 905 0
-527 524 0
528 -32 -726 0
-528 32 0
-528 726 0
529 -528 -9 0
-529 528 0
-529 9 0
530 -906 -527 0
-530 906 0
-530 527 0
531 -805 -819 0
-531 805 0
-531 819 0
532 -531 -8 0
-532 531 0
-532 8 0
533 -907 -530 0
-533 907 0
-533 530 0
534 -882 -4 0
-534 882 0
-534 4 0
535 -534 -50 0
-535 534 0
-535 50 0
536 -908 -533 0
-536 908 0
-536 533 0
537 -799 -727 0
-537 799 0
-537 727 0
538 -537 -27 0
-538 537 0
-538 27 0
539 -909 -536 0
-539 909 0
-539 536 0
540 -736 -10 0
-540 736 0
-540 10 0
541 -540 -12 0
-541 540 0
-541 12 0
542 -910 -539 0
-542 910 0
-542 539 0
543 -50 -776 0
-543 50 0
-543 776 0
544 -543 -27 0
-544 543 0
-544 27 0
545 -911 -542 0
-545 911 0
-545 542 0
546 -792 -766 0
-546 792 0
-546 766 0
547 -546 -799 0
-547 546 0
-547 799 0
548 -912 -545 0
-548 912 0
-548 545 0
549 -795 -699 0
-549 795 0
-549 699 0
550 -549 -16 0
-550 549 0
-550 16 0
551 -913 -548 0
-551 913 0
-551 548 0
552 -792 -1 0
-552 792 0
-552 1 0
553 -552 -21 0
-553 552 0
-553 21 0
554 -914 -551 0
-554 914 0
-554 551 0
555 -805 -713 0
-555 805 0
-555 713 0
556 -555 -844 0
-556 555 0
-556 844 0
557 -915 -554 0
-557 915 0
-557 554 0
558 -731 -4 0
-558 731 0
-558 4 0
559 -558 -50 0
-559 558 0
-559 50 0
560 -916 -557 0
-560 916 0
-560 557 0
561 -722 -5 0
-561 722 0
-561 5 0
562 -561 -799 0
-562 561 0
-562 799 0
563 -917 -560 0
-563 917 0
-563 560 0
564 -776 -8 0
-564 776 0
-564 8 0
565 -564 -708 0
-565 564 0
-565 708 0
566 -918 -563 0
-566 918 0
-566 563 0
567 -25 -785 0
-567 25 0
-567 785 0
568 -567 -14 0
-568 567 0
-568 14 0
569 -919 -566 0
-569 919 0
-569 566 0
570 -875 -803 0
-570 875 0
-570 803 0
571 -570 -719 0
-571 570 0
-571 719 0
572 -920 -569 0
-572 920 0
-572 569 0
573 -739 -698 0
-573 739 0
-573 698 0
574 -573 -1 0
-574 573 0
-574 1 0
575 -921 -572 0
-575 921 0
-575 572 0
576 -29 -882 0
-576 29 0
-576 882 0
577 -576 -792 0
-577 576 0
-577 792 0
578 -922 -575 0
-578 922 0
-578 575 0
579 -287 -36 0
-579 287 0
-579 36 0
580 -923 -578 0
-580 923 0
-580 578 0
581 -17 -698 0
-581 17 0
-581 698 0
582 -581 -719 0
-582 581 0
-582 719 0
583 -924 -580 0
-583 924 0
-583 580 0
584 -39 -5 0
-584 39 0
-584 5 0
585 -584 -36 0
-585 584 0
-585 36 0
586 -925 -583 0
-586 925 0
-586 583 0
587 -41 -37 0
-587 41 0
-587 37 0
588 -587 -766 0
-588 587 0
-588 766 0
589 -926 -586 0
-589 926 0
-589 586 0
590 -28 -817 0
-590 28 0
-590 817 0
591 -590 -50 0
-591 590 0
-591 50 0
592 -927 -589 0
-592 927 0
-592 589 0
593 -43 -702 0
-593 43 0
-593 702 0
594 -593 -21 0
-594 593 0
-594 21 0
595 -928 -592 0
-595 928 0
-595 592 0
596 -753 -706 0
-596 753 0
-596 706 0
597 -596 -23 0
-597 596 0
-597 23 0
598 -929 -595 0
-598 929 0
-598 595 0
599 -40 -739 0
-599 40 0
-599 739 0
600 -599 -3 0
-600 599 0
-600 3 0
601 -930 -598 0
-601 930 0
-601 598 0
602 -27 -769 0
-602 27 0
-602 769 0
603 -602 -741 0
-603 602 0
-603 741 0
604 -931 -601 0
-604 931 0
-604 601 0
605 -739 -769 0
-605 739 0
-605 769 0
606 -605 -819 0
-606 605 0
-606 819 0
607 -932 -604 0
-607 932 0
-607 604 0
608 -42 -31 0
-608 42 0
-608 31 0
609 -608 -14 0
-609 608 0
-609 14 0
610 -933 -607 0
-610 933 0
-610 607 0
611 -41 -2 0
-611 41 0
-611 2 0
612 -611 -35 0
-612 611 0
-612 35 0
613 -934 -610 0
-613 934 0
-613 610 0
614 -792 -698 0
-614 792 0
-614 698 0
615 -614 -8 0
-615 614 0
-615 8 0
616 -935 -613 0
-616 935 0
-616 613 0
617 -41 -713 0
-617 41 0
-617 713 0
618 -617 -6 0
-618 617 0
-618 6 0
619 -936 -616 0
-619 936 0
-619 616 0
620 -764 -41 0
-620 764 0
-620 41 0
621 -620 -7 0
-621 620 0
-621 7 0
622 -937 -619 0
-622 937 0
-622 619 0
623 -37 -722 0
-623 37 0
-623 722 0
624 -623 -769 0
-624 623 0
-624 769 0
625 -938 -622 0
-625 938 0
-625 622 0
626 -49 -28 0
-626 49 0
-626 28 0
627 -626 -757 0
-627 626 0
-627 757 0
628 -939 -625 0
-628 939 0
-628 625 0
629 -29 -702 0
-629 29 0
-629 702 0
630 -629 -803 0
-630 629 0
-630 803 0
631 -940 -628 0
-631 940 0
-631 628 0
632 -31 -766 0
-632 31 0
-632 766 0
633 -632 -9 0
-633 632 0
-633 9 0
634 -941 -631 0
-634 941 0
-634 631 0
635 -807 -753 0
-635 807 0
-635 753 0
636 -635 -14 0
-636 635 0
-636 14 0
637 -942 -634 0
-637 942 0
-637 634 0
638 -19 -11 0
-638 19 0
-638 11 0
639 -638 -38 0
-639 638 0
-639 38 0
640 -943 -637 0
-640 943 0
-640 637 0
641 -795 -817 0
-641 795 0
-641 817 0
642 -641 -27 0
-642 641 0
-642 27 0
643 -944 -640 0
-643 944 0
-643 640 0
644 -744 -10 0
-644 744 0
-644 10 0
645 -644 -5 0
-645 644 0
-645 5 0
646 -945 -643 0
-646 945 0
-646 643 0
647 -721 -739 0
-647 721 0
-647 739 0
648 -647 -767 0
-648 647 0
-648 767 0
649 -946 -646 0
-649 946 0
-649 646 0
650 -26 -795 0
-650 26 0
-650 795 0
651 -650 -30 0
-651 650 0
-651 30 0
652 -947 -649 0
-652 947 0
-652 649 0
653 -48 -31 0
-653 48 0
-653 31 0
654 -653 -699 0
-654 653 0
-654 699 0
655 -948 -652 0
-655 948 0
-655 652 0
656 -805 -764 0
-656 805 0
-656 764 0
657 -656 -731 0
-657 656 0
-657 731 0
658 -949 -655 0
-658 949 0
-658 655 0
659 -471 -719 0
-659 471 0
-659 719 0
660 -950 -658 0
-660 950 0
-660 658 0
661 -844 -722 0
-661 844 0
-661 722 0
662 -661 -40 0
-662 661 0
-662 40 0
663 -951 -660 0
-663 951 0
-663 660 0
664 -22 -12 0
-664 22 0
-664 12 0
665 -664 -50 0
-665 664 0
-665 50 0
666 -952 -663 0
-666 952 0
-666 663 0
667 -805 -882 0
-667 805 0
-667 882 0
668 -667 -726 0
-668 667 0
-668 726 0
669 -953 -666 0
-669 953 0
-669 666 0
670 -358 -2 0
-670 358 0
-670 2 0
671 -954 -669 0
-671 954 0
-671 669 0
672 -24 -882 0
-672 24 0
-672 882 0
673 -672 -1 0
-673 672 0
-673 1 0
674 -955 -671 0
-674 955 0
-674 671 0
675 -13 -702 0
-675 13 0
-675 702 0
676 -675 -12 0
-676 675 0
-676 12 0
677 -956 -674 0
-677 956 0
-677 674 0
678 -48 -875 0
-678 48 0
-678 875 0
679 -678 -705 0
-679 678 0
-679 705 0
680 -957 -677 0
-680 957 0
-680 677 0
681 -805 -31 0
-681 805 0
-681 31 0
682 -681 -6 0
-682 681 0
-682 6 0
683 -958 -680 0
-683 958 0
-683 680 0
684 -45 -766 0
-684 45 0
-684 766 0
685 -684 -739 0
-685 684 0
-685 739 0
686 -959 -683 0
-686 959 0
-686 683 0
687 -805 -33 0
-687 805 0
-687 33 0
688 -687 -753 0
-688 687 0
-688 753 0
689 -960 -686 0
-689 960 0
-689 686 0
690 -721 -3 0
-690 721 0
-690 3 0
691 -690 -9 0
-691 690 0
-691 9 0
692 -961 -689 0
-692 961 0
-692 689 0
693 -731 -13 0
-693 731 0
-693 13 0
694 -693 -12 0
-694 693 0
-694 12 0
695 -962 -692 0
-695 962 0
-695 692 0
-696 -1 0
696 1 0
-697 -5 0
697 5 0
-698 -4 0
698 4 0
-699 -6 0
699 6 0
-700 -54 0
700 54 0
-701 -52 0
701 52 0
-702 -7 0
702 7 0
-703 -9 0
703 9 0
-704 -57 0
704 57 0
-705 -11 0
705 11 0
-706 -12 0
706 12 0
-707 -60 0
707 60 0
-708 -14 0
708 14 0
-709 -63 0
709 63 0
-710 -66 0
710 66 0
-711 -69 0
711 69 0
-712 -20 0
712 20 0
-713 -19 0
713 19 0
-714 -72 0
714 72 0
-715 -22 0
715 22 0
-716 -75 0
716 75 0
-717 -78 0
717 78 0
-718 -81 0
718 81 0
-719 -27 0
719 27 0
-720 -84 0
720 84 0
-721 -28 0
721 28 0
-722 -18 0
722 18 0
-723 -87 0
723 87 0
-724 -29 0
724 29 0
-725 -90 0
725 90 0
-726 -30 0
726 30 0
-727 -23 0
727 23 0
-728 -93 0
728 93 0
-729 -2 0
729 2 0
-730 -96 0
730 96 0
-731 -31 0
731 31 0
-732 -99 0
732 99 0
-733 -102 0
733 102 0
-734 -32 0
734 32 0
-735 -105 0
735 105 0
-736 -33 0
736 33 0
-737 -34 0
737 34 0
-738 -108 0
738 108 0
-739 -24 0
739 24 0
-740 -111 0
740 111 0
-741 -36 0
741 36 0
-742 -114 0
742 114 0
-743 -117 0
743 117 0
-744 -37 0
744 37 0
-745 -120 0
745 120 0
-746 -123 0
746 123 0
-747 -126 0
747 126 0
-748 -129 0
748 129 0
-749 -132 0
749 132 0
-750 -40 0
750 40 0
-751 -135 0
751 135 0
-752 -138 0
752 138 0
-753 -42 0
753 42 0
-754 -141 0
754 141 0
-755 -144 0
755 144 0
-756 -147 0
756 147 0
-757 -44 0
757 44 0
-758 -150 0
758 150 0
-759 -153 0
759 153 0
-760 -156 0
760 156 0
-761 -46 0
761 46 0
-762 -159 0
762 159 0
-763 -162 0
763 162 0
-764 -47 0
764 47 0
-765 -165 0
765 165 0
-766 -15 0
766 15 0
-767 -21 0
767 21 0
-768 -168 0
768 168 0
-769 -13 0
769 13 0
-770 -171 0
770 171 0
-771 -174 0
771 174 0
-772 -177 0
772 177 0
-773 -180 0
773 180 0
-774 -183 0
774 183 0
-775 -186 0
775 186 0
-776 -25 0
776 25 0
-777 -189 0
777 189 0
-778 -192 0
778 192 0
-779 -195 0
779 195 0
-780 -198 0
780 198 0
-781 -201 0
781 201 0
-782 -204 0
782 204 0
-783 -207 0
783 207 0
-784 -210 0
784 210 0
-785 -3 0
785 3 0
-786 -213 0
786 213 0
-787 -216 0
787 216 0
-788 -219 0
788 219 0
-789 -222 0
789 222 0
-790 -225 0
790 225 0
-791 -228 0
791 228 0
-792 -49 0
792 49 0
-793 -231 0
793 231 0
-794 -234 0
794 234 0
-795 -10 0
795 10 0
-796 -237 0
796 237 0
-797 -240 0
797 240 0
-798 -38 0
798 38 0
-799 -39 0
799 39 0
-800 -243 0
800 243 0
-801 -246 0
801 246 0
-802 -249 0
802 249 0
-803 -16 0
803 16 0
-804 -252 0
804 252 0
-805 -48 0
805 48 0
-806 -255 0
806 255 0
-807 -43 0
807 43 0
-808 -258 0
808 258 0
-809 -261 0
809 261 0
-810 -264 0
810 264 0
-811 -267 0
811 267 0
-812 -270 0
812 270 0
-813 -273 0
813 273 0
-814 -276 0
814 276 0
-815 -26 0
815 26 0
-816 -279 0
816 279 0
-817 -8 0
817 8 0
-818 -282 0
818 282 0
-819 -35 0
819 35 0
-820 -285 0
820 285 0
-821 -288 0
821 288 0
-822 -291 0
822 291 0
-823 -294 0
823 294 0
-824 -297 0
824 297 0
-825 -300 0
825 300 0
-826 -303 0
826 303 0
-827 -306 0
827 306 0
-828 -309 0
828 309 0
-829 -312 0
829 312 0
-830 -315 0
830 315 0
-831 -318 0
831 318 0
-832 -321 0
832 321 0
-833 -324 0
833 324 0
-834 -327 0
834 327 0
-835 -330 0
835 330 0
-836 -333 0
836 333 0
-837 -336 0
837 336 0
-838 -338 0
838 338 0
-839 -341 0
839 341 0
-840 -344 0
840 344 0
-841 -50 0
841 50 0
-842 -347 0
842 347 0
-843 -350 0
843 350 0
-844 -41 0
844 41 0
-845 -353 0
845 353 0
-846 -356 0
846 356 0
-847 -359 0
847 359 0
-848 -362 0
848 362 0
-849 -365 0
849 365 0
-850 -367 0
850 367 0
-851 -370 0
851 370 0
-852 -373 0
852 373 0
-853 -376 0
853 376 0
-854 -379 0
854 379 0
-855 -382 0
855 382 0
-856 -385 0
856 385 0
-857 -388 0
857 388 0
-858 -391 0
858 391 0
-859 -394 0
859 394 0
-860 -397 0
860 397 0
-861 -400 0
861 400 0
-862 -403 0
862 403 0
-863 -406 0
863 406 0
-864 -409 0
864 409 0
-865 -412 0
865 412 0
-866 -415 0
866 415 0
-867 -418 0
867 418 0
-868 -421 0
868 421 0
-869 -424 0
869 424 0
-870 -427 0
870 427 0
-871 -430 0
871 430 0
-872 -433 0
872 433 0
-873 -436 0
873 436 0
-874 -439 0
874 439 0
-875 -45 0
875 45 0
-876 -442 0
876 442 0
-877 -445 0
877 445 0
-878 -448 0
878 448 0
-879 -451 0
879 451 0
-880 -454 0
880 454 0
-881 -457 0
881 457 0
-882 -17 0
882 17 0
-883 -460 0
883 460 0
-884 -463 0
884 463 0
-885 -466 0
885 466 0
-886 -469 0
886 469 0
-887 -472 0
887 472 0
-888 -475 0
888 475 0
-889 -478 0
889 478 0
-890 -481 0
890 481 0
-891 -484 0
891 484 0
-892 -487 0
892 487 0
-893 -490 0
893 490 0
-894 -493 0
894 493 0
-895 -496 0
895 496 0
-896 -499 0
896 499 0
-897 -502 0
897 502 0
-898 -505 0
898 505 0
-899 -508 0
899 508 0
-900 -511 0
900 511 0
-901 -514 0
901 514 0
-902 -517 0
902 517 0
-903 -520 0
903 520 0
-904 -523 0
904 523 0
-905 -526 0
905 526 0
-906 -529 0
906 529 0
-907 -532 0
907 532 0
-908 -535 0
908 535 0
-909 -538 0
909 538 0
-910 -541 0
910 541 0
-911 -544 0
911 544 0
-912 -547 0
912 547 0
-913 -550 0
913 550 0
-914 -553 0
914 553 0
-915 -556 0
915 556 0
-916 -559 0
916 559 0
-917 -562 0
917 562 0
-918 -565 0
918 565 0
-919 -568 0
919 568 0
-920 -571 0
920 571 0
-921 -574 0
921 574 0
-922 -577 0
922 577 0
-923 -579 0
923 579 0
-924 -582 0
924 582 0
-925 -585 0
925 585 0
-926 -588 0
926 588 0
-927 -591 0
927 591 0
-928 -594 0
928 594 0
-929 -597 0
929 597 0
-930 -600 0
930 600 0
-931 -603 0
931 603 0
-932 -606 0
932 606 0
-933 -609 0
933 609 0
-934 -612 0
934 612 0
-935 -615 0
935 615 0
-936 -618 0
936 618 0
-937 -621 0
937 621 0
-938 -624 0
938 624 0
-939 -627 0
939 627 0
-940 -630 0
940 630 0
-941 -633 0
941 633 0
-942 -636 0
942 636 0
-943 -639 0
943 639 0
-944 -642 0
944 642 0
-945 -645 0
945 645 0
-946 -648 0
946 648 0
-947 -651 0
947 651 0
-948 -654 0
948 654 0
-949 -657 0
949 657 0
-950 -659 0
950 659 0
-951 -662 0
951 662 0
-952 -665 0
952 665 0
-953 -668 0
953 668 0
-954 -670 0
954 670 0
-955 -673 0
955 673 0
-956 -676 0
956 676 0
-957 -679 0
957 679 0
-958 -682 0
958 682 0
-959 -685 0
959 685 0
-960 -688 0
960 688 0
-961 -691 0
961 691 0
-962 -694 0
962 694 0
695 0
